p tdp 118 117
85 113
62 51
28 50
79 50
19 29
14 44
31 103
8 71
27 8
40 32
108 6
84 113
5 56
19 21
17 3
4 81
7 54
36 86
31 116
39 57
13 112
61 11
2 96
117 95
53 97
117 15
111 33
77 12
18 105
65 72
32 84
28 67
96 78
25 10
42 76
70 59
63 9
56 16
34 58
101 11
12 53
73 61
8 83
91 114
1 43
54 98
16 87
116 63
88 10
61 6
76 14
118 55
104 46
81 24
107 76
61 68
107 30
80 82
75 55
75 112
10 94
110 39
72 84
92 62
102 8
4 55
115 69
48 111
47 14
100 39
22 10
66 34
37 19
104 38
26 53
90 53
41 43
60 25
93 45
15 74
39 58
15 107
20 17
61 97
100 89
66 35
35 24
23 78
105 59
69 106
83 51
84 93
86 91
82 99
33 84
15 52
92 46
12 22
41 82
114 29
64 12
21 69
49 80
27 1
109 87
3 19
90 23
41 16
72 10
7 70
18 28
59 8
9 105
60 75
114 58
98 22
65 30
